c WARNING: for repeatability, setting FPU to use double precision
d VARIABLES            228582       
d CONSTRAINTS          845740       
c ============================[ Problem Statistics ]=============================
c |                                                                             |
c |  Number of variables:        228582                                         |
c |  Number of clauses:          845740                                         |
c |  Parse time:                   0.15 s                                       |
c |                                                                             |
c ============================[ Search Statistics ]==============================
c | Conflicts |          ORIGINAL         |          LEARNT          | Progress |
c |           |    Vars  Clauses Literals |    Limit  Clauses Lit/Cl |          |
c ===============================================================================
c |       100 |  187521   738922  1854815 |   270938      100     87 | 17.963 % |
c |       250 |  187520   738907  1854777 |   298031      249     50 | 17.964 % |
c |       475 |  187520   738907  1854777 |   327835      474     30 | 17.964 % |
c |       812 |  187519   738903  1854767 |   360618      810     23 | 17.964 % |
c |      1318 |  187519   738903  1854767 |   396680     1316     17 | 17.964 % |
c |      2077 |  187519   738903  1854767 |   436348     2075     17 | 17.964 % |
c |      3216 |  187519   738903  1854767 |   479983     3214     14 | 17.964 % |
c |      4924 |  187519   738903  1854767 |   527981     4922     12 | 17.964 % |
c |      7486 |  187518   738888  1854729 |   580779     7483     14 | 17.965 % |
c |     11330 |  187458   738580  1853975 |   638857    11200     15 | 17.991 % |
c |     17096 |  187271   737652  1851674 |   702743    16686     22 | 18.073 % |
c ===============================================================================
c restarts              : 75
c conflicts             : 20984          (1968 /sec)
c decisions             : 432433         (0.00 % random) (40563 /sec)
c propagations          : 69181744       (6489439 /sec)
c conflict literals     : 459199         (14.48 % deleted)
d RESTARTS             75
d FAILURES             20984        
d NODES                432433       
d BACKTRACKS           432433       
d PROPAGATIONS         69181744     
d NOGOODSIZE           21.88 
d MEMORY               70.00 
d TIME                 10.6607 

s UNSATISFIABLE
